
Gurobi 8.1.1 (mac64, Python) logging started Fri Apr 17 15:42:25 2020

Academic license - for non-commercial use only

Gurobi 8.1.1 (mac64, Python) logging started Fri Apr 17 15:43:13 2020

Academic license - for non-commercial use only

Gurobi 8.1.1 (mac64, Python) logging started Fri Apr 17 15:44:18 2020

Academic license - for non-commercial use only

Gurobi 8.1.1 (mac64, Python) logging started Fri Apr 17 15:44:31 2020

Academic license - for non-commercial use only

Gurobi 8.1.1 (mac64, Python) logging started Fri Apr 17 15:44:42 2020

Academic license - for non-commercial use only

Gurobi 8.1.1 (mac64, Python) logging started Fri Apr 17 15:45:00 2020

Academic license - for non-commercial use only

Gurobi 8.1.1 (mac64, Python) logging started Fri Apr 17 15:45:36 2020

Academic license - for non-commercial use only

Gurobi 8.1.1 (mac64, Python) logging started Fri Apr 17 15:46:06 2020

Academic license - for non-commercial use only

Gurobi 8.1.1 (mac64, Python) logging started Fri Apr 17 15:46:26 2020

Academic license - for non-commercial use only

Gurobi 8.1.1 (mac64, Python) logging started Fri Apr 17 15:46:35 2020

Academic license - for non-commercial use only

Gurobi 8.1.1 (mac64, Python) logging started Fri Apr 17 15:46:42 2020

Academic license - for non-commercial use only

Gurobi 8.1.1 (mac64, Python) logging started Fri Apr 17 16:17:14 2020

Academic license - for non-commercial use only

Gurobi 8.1.1 (mac64) logging started Fri Apr 17 16:18:24 2020

Academic license - for non-commercial use only

Gurobi Optimizer version 8.1.1 build v8.1.1rc0 (mac64)
Copyright (c) 2019, Gurobi Optimization, LLC

Read LP format model from file IP-kedney2.lp
Reading time = 0.01 seconds
: 100 rows, 942 columns, 942 nonzeros
Optimize a model with 100 rows, 942 columns and 942 nonzeros
Variable types: 0 continuous, 942 integer (942 binary)
Coefficient statistics:
  Matrix range     [1e+00, 1e+00]
  Objective range  [1e+00, 1e+00]
  Bounds range     [1e+00, 1e+00]
  RHS range        [1e+00, 1e+00]
Found heuristic solution: objective 100.0000000
Presolve removed 100 rows and 942 columns
Presolve time: 0.01s
Presolve: All rows and columns removed

Explored 0 nodes (0 simplex iterations) in 0.02 seconds
Thread count was 1 (of 4 available processors)

Solution count 1: 100 

Optimal solution found (tolerance 1.00e-04)
Best objective 1.000000000000e+02, best bound 1.000000000000e+02, gap 0.0000%

Gurobi 8.1.1 (mac64) logging started Fri Apr 17 16:19:42 2020

Academic license - for non-commercial use only

Gurobi Optimizer version 8.1.1 build v8.1.1rc0 (mac64)
Copyright (c) 2019, Gurobi Optimization, LLC

Read LP format model from file IP-kedney2.lp
Reading time = 0.01 seconds
: 100 rows, 942 columns, 942 nonzeros
Optimize a model with 100 rows, 942 columns and 942 nonzeros
Variable types: 0 continuous, 942 integer (942 binary)
Coefficient statistics:
  Matrix range     [1e+00, 1e+00]
  Objective range  [1e+00, 1e+00]
  Bounds range     [1e+00, 1e+00]
  RHS range        [1e+00, 1e+00]
Found heuristic solution: objective 100.0000000
Presolve removed 100 rows and 942 columns
Presolve time: 0.01s
Presolve: All rows and columns removed

Explored 0 nodes (0 simplex iterations) in 0.02 seconds
Thread count was 1 (of 4 available processors)

Solution count 1: 100 

Optimal solution found (tolerance 1.00e-04)
Best objective 1.000000000000e+02, best bound 1.000000000000e+02, gap 0.0000%

Gurobi 8.1.1 (mac64, Python) logging started Fri Apr 17 16:19:43 2020

Academic license - for non-commercial use only

Gurobi 8.1.1 (mac64, Python) logging started Fri Apr 17 16:21:20 2020

Academic license - for non-commercial use only

Gurobi 8.1.1 (mac64, Python) logging started Fri Apr 17 16:21:29 2020

Academic license - for non-commercial use only

Gurobi 8.1.1 (mac64) logging started Fri Apr 17 16:22:20 2020

Academic license - for non-commercial use only

Gurobi Optimizer version 8.1.1 build v8.1.1rc0 (mac64)
Copyright (c) 2019, Gurobi Optimization, LLC

Read LP format model from file IP-kedney2.lp
Reading time = 0.01 seconds
: 100 rows, 942 columns, 1884 nonzeros
Optimize a model with 100 rows, 942 columns and 1884 nonzeros
Variable types: 0 continuous, 942 integer (942 binary)
Coefficient statistics:
  Matrix range     [1e+00, 1e+00]
  Objective range  [1e+00, 1e+00]
  Bounds range     [1e+00, 1e+00]
  RHS range        [1e+00, 1e+00]
Found heuristic solution: objective 50.0000000
Presolve removed 2 rows and 483 columns
Presolve time: 0.02s
Presolved: 98 rows, 459 columns, 918 nonzeros
Variable types: 0 continuous, 459 integer (459 binary)

Root relaxation: cutoff, 264 iterations, 0.00 seconds

    Nodes    |    Current Node    |     Objective Bounds      |     Work
 Expl Unexpl |  Obj  Depth IntInf | Incumbent    BestBd   Gap | It/Node Time

     0     0     cutoff    0        50.00000   50.00000  0.00%     -    0s

Explored 0 nodes (264 simplex iterations) in 0.05 seconds
Thread count was 4 (of 4 available processors)

Solution count 1: 50 

Optimal solution found (tolerance 1.00e-04)
Best objective 5.000000000000e+01, best bound 5.000000000000e+01, gap 0.0000%

Gurobi 8.1.1 (mac64) logging started Fri Apr 17 16:22:30 2020

Academic license - for non-commercial use only

Gurobi Optimizer version 8.1.1 build v8.1.1rc0 (mac64)
Copyright (c) 2019, Gurobi Optimization, LLC

Read LP format model from file IP-kedney2.lp
Reading time = 0.01 seconds
: 100 rows, 942 columns, 1884 nonzeros
Optimize a model with 100 rows, 942 columns and 1884 nonzeros
Variable types: 0 continuous, 942 integer (942 binary)
Coefficient statistics:
  Matrix range     [1e+00, 1e+00]
  Objective range  [1e+00, 1e+00]
  Bounds range     [1e+00, 1e+00]
  RHS range        [1e+00, 1e+00]
Found heuristic solution: objective 50.0000000
Presolve removed 2 rows and 483 columns
Presolve time: 0.01s
Presolved: 98 rows, 459 columns, 918 nonzeros
Variable types: 0 continuous, 459 integer (459 binary)

Root relaxation: cutoff, 264 iterations, 0.00 seconds

    Nodes    |    Current Node    |     Objective Bounds      |     Work
 Expl Unexpl |  Obj  Depth IntInf | Incumbent    BestBd   Gap | It/Node Time

     0     0     cutoff    0        50.00000   50.00000  0.00%     -    0s

Explored 0 nodes (264 simplex iterations) in 0.01 seconds
Thread count was 4 (of 4 available processors)

Solution count 1: 50 

Optimal solution found (tolerance 1.00e-04)
Best objective 5.000000000000e+01, best bound 5.000000000000e+01, gap 0.0000%

Gurobi 8.1.1 (mac64, Python) logging started Fri Apr 17 16:22:35 2020

Academic license - for non-commercial use only

Gurobi 8.1.1 (mac64, Python) logging started Fri Apr 17 16:24:11 2020

Academic license - for non-commercial use only

Gurobi 8.1.1 (mac64) logging started Fri Apr 17 16:24:46 2020

Academic license - for non-commercial use only

Gurobi Optimizer version 8.1.1 build v8.1.1rc0 (mac64)
Copyright (c) 2019, Gurobi Optimization, LLC

Read LP format model from file IP-kedney2.lp
Reading time = 0.01 seconds
: 100 rows, 483 columns, 966 nonzeros
Optimize a model with 100 rows, 483 columns and 966 nonzeros
Variable types: 0 continuous, 483 integer (483 binary)
Coefficient statistics:
  Matrix range     [1e+00, 1e+00]
  Objective range  [1e+00, 1e+00]
  Bounds range     [1e+00, 1e+00]
  RHS range        [1e+00, 1e+00]
Found heuristic solution: objective 50.0000000
Presolve removed 2 rows and 24 columns
Presolve time: 0.02s
Presolved: 98 rows, 459 columns, 918 nonzeros
Variable types: 0 continuous, 459 integer (459 binary)

Root relaxation: cutoff, 189 iterations, 0.01 seconds

    Nodes    |    Current Node    |     Objective Bounds      |     Work
 Expl Unexpl |  Obj  Depth IntInf | Incumbent    BestBd   Gap | It/Node Time

     0     0     cutoff    0        50.00000   50.00000  0.00%     -    0s

Explored 0 nodes (189 simplex iterations) in 0.04 seconds
Thread count was 4 (of 4 available processors)

Solution count 1: 50 

Optimal solution found (tolerance 1.00e-04)
Best objective 5.000000000000e+01, best bound 5.000000000000e+01, gap 0.0000%

Gurobi 8.1.1 (mac64, Python) logging started Fri Apr 17 16:25:44 2020

Academic license - for non-commercial use only
Optimize a model with 100 rows, 483 columns and 966 nonzeros
Variable types: 0 continuous, 483 integer (483 binary)
Coefficient statistics:
  Matrix range     [1e+00, 1e+00]
  Objective range  [1e+00, 1e+00]
  Bounds range     [1e+00, 1e+00]
  RHS range        [1e+00, 1e+00]
Found heuristic solution: objective 50.0000000
Presolve removed 2 rows and 24 columns
Presolve time: 0.02s
Presolved: 98 rows, 459 columns, 918 nonzeros
Variable types: 0 continuous, 459 integer (459 binary)

Root relaxation: cutoff, 189 iterations, 0.01 seconds

    Nodes    |    Current Node    |     Objective Bounds      |     Work
 Expl Unexpl |  Obj  Depth IntInf | Incumbent    BestBd   Gap | It/Node Time

     0     0     cutoff    0        50.00000   50.00000  0.00%     -    0s

Explored 0 nodes (189 simplex iterations) in 0.05 seconds
Thread count was 4 (of 4 available processors)

Solution count 1: 50 

Optimal solution found (tolerance 1.00e-04)
Best objective 5.000000000000e+01, best bound 5.000000000000e+01, gap 0.0000%

Gurobi 8.1.1 (mac64, Python) logging started Fri Apr 17 16:30:19 2020

Academic license - for non-commercial use only
Optimize a model with 101 rows, 484 columns and 968 nonzeros
Variable types: 0 continuous, 484 integer (484 binary)
Coefficient statistics:
  Matrix range     [1e+00, 1e+00]
  Objective range  [1e+00, 1e+00]
  Bounds range     [1e+00, 1e+00]
  RHS range        [1e+00, 1e+00]
Presolve removed 4 rows and 37 columns
Presolve time: 0.04s
Presolved: 97 rows, 447 columns, 894 nonzeros
Variable types: 0 continuous, 447 integer (447 binary)

Root relaxation: objective 5.050000e+01, 250 iterations, 0.02 seconds

    Nodes    |    Current Node    |     Objective Bounds      |     Work
 Expl Unexpl |  Obj  Depth IntInf | Incumbent    BestBd   Gap | It/Node Time

     0     0   50.50000    0    3          -   50.50000      -     -    0s

Explored 0 nodes (559 simplex iterations) in 0.10 seconds
Thread count was 4 (of 4 available processors)

Solution count 0

Model is infeasible
Best objective -, best bound -, gap -

Gurobi 8.1.1 (mac64, Python) logging started Fri Apr 17 16:31:15 2020

Academic license - for non-commercial use only
Optimize a model with 101 rows, 484 columns and 968 nonzeros
Variable types: 0 continuous, 484 integer (484 binary)
Coefficient statistics:
  Matrix range     [1e+00, 1e+00]
  Objective range  [1e+00, 1e+00]
  Bounds range     [1e+00, 1e+00]
  RHS range        [1e+00, 1e+00]
Found heuristic solution: objective 46.0000000
Presolve removed 4 rows and 37 columns
Presolve time: 0.01s
Presolved: 97 rows, 447 columns, 894 nonzeros
Found heuristic solution: objective 47.0000000
Variable types: 0 continuous, 447 integer (447 binary)

Root relaxation: objective 5.050000e+01, 158 iterations, 0.00 seconds

    Nodes    |    Current Node    |     Objective Bounds      |     Work
 Expl Unexpl |  Obj  Depth IntInf | Incumbent    BestBd   Gap | It/Node Time

     0     0   50.50000    0    3   47.00000   50.50000  7.45%     -    0s
H    0     0                      50.0000000   50.50000  1.00%     -    0s

Explored 1 nodes (158 simplex iterations) in 0.02 seconds
Thread count was 4 (of 4 available processors)

Solution count 4: 50 47 46 45 

Optimal solution found (tolerance 1.00e-04)
Best objective 5.000000000000e+01, best bound 5.000000000000e+01, gap 0.0000%

Gurobi 8.1.1 (mac64, Python) logging started Fri Apr 17 16:33:13 2020

Academic license - for non-commercial use only
Optimize a model with 101 rows, 483 columns and 966 nonzeros
Variable types: 0 continuous, 483 integer (483 binary)
Coefficient statistics:
  Matrix range     [1e+00, 1e+00]
  Objective range  [1e+00, 1e+00]
  Bounds range     [1e+00, 1e+00]
  RHS range        [1e+00, 1e+00]
Found heuristic solution: objective 46.0000000
Presolve removed 3 rows and 24 columns
Presolve time: 0.01s
Presolved: 98 rows, 459 columns, 918 nonzeros
Found heuristic solution: objective 48.0000000
Variable types: 0 continuous, 459 integer (459 binary)

Root relaxation: objective 5.000000e+01, 113 iterations, 0.00 seconds

    Nodes    |    Current Node    |     Objective Bounds      |     Work
 Expl Unexpl |  Obj  Depth IntInf | Incumbent    BestBd   Gap | It/Node Time

*    0     0               0      50.0000000   50.00000  0.00%     -    0s

Explored 0 nodes (113 simplex iterations) in 0.01 seconds
Thread count was 4 (of 4 available processors)

Solution count 4: 50 48 46 45 

Optimal solution found (tolerance 1.00e-04)
Best objective 5.000000000000e+01, best bound 5.000000000000e+01, gap 0.0000%

Gurobi 8.1.1 (mac64, Python) logging started Fri Apr 17 17:05:46 2020

Academic license - for non-commercial use only

Gurobi 8.1.1 (mac64, Python) logging started Fri Apr 17 17:22:11 2020

Academic license - for non-commercial use only

Gurobi 8.1.1 (mac64, Python) logging started Fri Apr 17 17:23:15 2020

Academic license - for non-commercial use only

Gurobi 8.1.1 (mac64, Python) logging started Fri Apr 17 17:23:25 2020

Academic license - for non-commercial use only

Gurobi 8.1.1 (mac64, Python) logging started Fri Apr 17 17:23:42 2020

Academic license - for non-commercial use only

Gurobi 8.1.1 (mac64, Python) logging started Sat Apr 18 14:21:24 2020

Academic license - for non-commercial use only

Gurobi 8.1.1 (mac64, Python) logging started Sat Apr 18 14:31:32 2020

Academic license - for non-commercial use only
Optimize a model with 10161 rows, 483 columns and 31332 nonzeros
Variable types: 0 continuous, 483 integer (483 binary)
Coefficient statistics:
  Matrix range     [1e+00, 1e+00]
  Objective range  [1e+00, 1e+00]
  Bounds range     [1e+00, 1e+00]
  RHS range        [1e+00, 2e+00]
Found heuristic solution: objective -0.0000000
Presolve removed 2668 rows and 99 columns
Presolve time: 0.19s
Presolved: 7493 rows, 384 columns, 23116 nonzeros
Variable types: 0 continuous, 384 integer (384 binary)

Root relaxation: objective 8.700000e+01, 7496 iterations, 0.37 seconds

    Nodes    |    Current Node    |     Objective Bounds      |     Work
 Expl Unexpl |  Obj  Depth IntInf | Incumbent    BestBd   Gap | It/Node Time

     0     0   87.00000    0  166   -0.00000   87.00000      -     -    0s
H    0     0                      32.0000000   87.00000   172%     -    0s
     0     0   87.00000    0  173   32.00000   87.00000   172%     -    1s
     0     0   87.00000    0  163   32.00000   87.00000   172%     -    1s
     0     0   86.95652    0  172   32.00000   86.95652   172%     -    1s
H    0     0                      37.0000000   86.95652   135%     -    1s
     0     0   86.95652    0  169   37.00000   86.95652   135%     -    1s
     0     0   86.45833    0  184   37.00000   86.45833   134%     -    1s
     0     0   86.45833    0  174   37.00000   86.45833   134%     -    1s
     0     0   86.41667    0  178   37.00000   86.41667   134%     -    2s
     0     0   86.41667    0  166   37.00000   86.41667   134%     -    2s
     0     0   86.00000    0  139   37.00000   86.00000   132%     -    2s
     0     0   86.00000    0  160   37.00000   86.00000   132%     -    2s
     0     0   86.00000    0  172   37.00000   86.00000   132%     -    2s
     0     0   86.00000    0  143   37.00000   86.00000   132%     -    2s
     0     0   86.00000    0  145   37.00000   86.00000   132%     -    2s
     0     0   86.00000    0  147   37.00000   86.00000   132%     -    2s
     0     0   86.00000    0  172   37.00000   86.00000   132%     -    3s
H    0     0                      38.0000000   86.00000   126%     -    3s
     0     0   86.00000    0  176   38.00000   86.00000   126%     -    3s
     0     0   86.00000    0  169   38.00000   86.00000   126%     -    3s
H    0     0                      41.0000000   86.00000   110%     -    4s
     0     0   86.00000    0  157   41.00000   86.00000   110%     -    4s
     0     0   86.00000    0  169   41.00000   86.00000   110%     -    4s
     0     0   86.00000    0  164   41.00000   86.00000   110%     -    4s
     0     2   86.00000    0  164   41.00000   86.00000   110%     -    5s
H   88    48                      42.0000000   86.00000   105%   101    6s
   316   151   85.70833   12  171   42.00000   86.00000   105%   106   10s
H  494   205                      44.0000000   86.00000  95.5%   105   12s
H  545   195                      45.0000000   85.91667  90.9%   103   13s
   682   230   82.85714   18  168   45.00000   85.00000  88.9%   101   15s
H  811   281                      46.0000000   85.00000  84.8%   102   17s
H  838   317                      47.0000000   85.00000  80.9%   100   18s
H  879   336                      48.0000000   85.00000  77.1%   101   18s
   953   376   80.45153   23  169   48.00000   85.00000  77.1%   102   20s
  1247   494   83.80000   11  189   48.00000   85.00000  77.1%   103   25s
  1461   510   73.64676   39  159   48.00000   84.70833  76.5%   103   30s
  1510   542   83.92857   23  180   48.00000   84.40909  75.9%   102   35s
  1520   548   78.90351   25  198   48.00000   84.28409  75.6%   101   40s
  1523   550   84.25000   11  174   48.00000   84.25000  75.5%   115   46s
  1526   550   81.66667   13  167   48.00000   82.12500  71.1%   115   50s
  1544   548 infeasible   22        48.00000   81.66667  70.1%   117   55s
  1701   536   49.00000   36   24   48.00000   72.21296  50.4%   116   60s

Cutting planes:
  Gomory: 1
  Cover: 6
  MIR: 4
  Flow cover: 9
  Inf proof: 2
  Zero half: 10

Explored 1868 nodes (219234 simplex iterations) in 61.76 seconds
Thread count was 4 (of 4 available processors)

Solution count 10: 48 47 46 ... 32

Optimal solution found (tolerance 1.00e-04)
Best objective 4.800000000000e+01, best bound 4.800000000000e+01, gap 0.0000%
Warning: linear constraint 200 and linear constraint 201 have the same name "ThreePathConstr"
Warning: linear constraint 200 and linear constraint 201 have the same name "ThreePathConstr"
Warning: default constraint names used to write mps file

Gurobi 8.1.1 (mac64, Python) logging started Sat Apr 18 14:36:34 2020

Academic license - for non-commercial use only
Optimize a model with 10161 rows, 483 columns and 31332 nonzeros
Variable types: 0 continuous, 483 integer (483 binary)
Coefficient statistics:
  Matrix range     [1e+00, 1e+00]
  Objective range  [1e+00, 1e+00]
  Bounds range     [1e+00, 1e+00]
  RHS range        [1e+00, 2e+00]
Found heuristic solution: objective -0.0000000
Presolve removed 2668 rows and 99 columns
Presolve time: 0.14s
Presolved: 7493 rows, 384 columns, 23116 nonzeros
Variable types: 0 continuous, 384 integer (384 binary)

Root relaxation: objective 8.700000e+01, 7496 iterations, 0.37 seconds

    Nodes    |    Current Node    |     Objective Bounds      |     Work
 Expl Unexpl |  Obj  Depth IntInf | Incumbent    BestBd   Gap | It/Node Time

     0     0   87.00000    0  166   -0.00000   87.00000      -     -    0s
H    0     0                      32.0000000   87.00000   172%     -    0s
     0     0   87.00000    0  173   32.00000   87.00000   172%     -    0s
     0     0   87.00000    0  163   32.00000   87.00000   172%     -    0s
     0     0   86.95652    0  172   32.00000   86.95652   172%     -    1s
H    0     0                      37.0000000   86.95652   135%     -    1s
     0     0   86.95652    0  169   37.00000   86.95652   135%     -    1s
     0     0   86.45833    0  184   37.00000   86.45833   134%     -    1s
     0     0   86.45833    0  174   37.00000   86.45833   134%     -    1s
     0     0   86.41667    0  178   37.00000   86.41667   134%     -    1s
     0     0   86.41667    0  166   37.00000   86.41667   134%     -    1s
     0     0   86.00000    0  139   37.00000   86.00000   132%     -    2s
     0     0   86.00000    0  160   37.00000   86.00000   132%     -    2s
     0     0   86.00000    0  172   37.00000   86.00000   132%     -    2s
     0     0   86.00000    0  143   37.00000   86.00000   132%     -    2s
     0     0   86.00000    0  145   37.00000   86.00000   132%     -    2s
     0     0   86.00000    0  147   37.00000   86.00000   132%     -    2s
     0     0   86.00000    0  172   37.00000   86.00000   132%     -    2s
H    0     0                      38.0000000   86.00000   126%     -    2s
     0     0   86.00000    0  176   38.00000   86.00000   126%     -    2s
     0     0   86.00000    0  169   38.00000   86.00000   126%     -    3s
H    0     0                      41.0000000   86.00000   110%     -    3s
     0     0   86.00000    0  157   41.00000   86.00000   110%     -    3s
     0     0   86.00000    0  169   41.00000   86.00000   110%     -    4s
     0     0   86.00000    0  164   41.00000   86.00000   110%     -    4s
     0     2   86.00000    0  164   41.00000   86.00000   110%     -    4s
     3     6   86.00000    2  156   41.00000   86.00000   110%   244    5s
H   88    48                      42.0000000   86.00000   105%   101    6s
   343   153   86.00000   10  120   42.00000   86.00000   105%   108   10s
H  494   205                      44.0000000   86.00000  95.5%   105   12s
H  545   195                      45.0000000   85.91667  90.9%   103   12s
   682   230   82.85714   18  168   45.00000   85.00000  88.9%   101   15s
H  811   281                      46.0000000   85.00000  84.8%   102   17s
H  838   317                      47.0000000   85.00000  80.9%   100   18s
H  879   336                      48.0000000   85.00000  77.1%   101   18s
   953   376   80.45153   23  169   48.00000   85.00000  77.1%   102   20s
  1183   496 infeasible   26        48.00000   85.00000  77.1%   103   25s
  1461   510   73.64676   39  159   48.00000   84.70833  76.5%   103   30s
  1509   541   80.00000   23  177   48.00000   84.40909  75.9%   102   35s
  1520   548   78.90351   25  198   48.00000   84.28409  75.6%   101   40s
  1523   550   84.25000   11  174   48.00000   84.25000  75.5%   115   46s
  1526   550   81.66667   13  167   48.00000   82.12500  71.1%   115   50s
  1552   551   65.67308   25  118   48.00000   80.00000  66.7%   118   55s

Cutting planes:
  Gomory: 1
  Cover: 6
  MIR: 4
  Flow cover: 9
  Inf proof: 2
  Zero half: 10

Explored 1868 nodes (219234 simplex iterations) in 58.55 seconds
Thread count was 4 (of 4 available processors)

Solution count 10: 48 47 46 ... 32

Optimal solution found (tolerance 1.00e-04)
Best objective 4.800000000000e+01, best bound 4.800000000000e+01, gap 0.0000%
